benchmarks/bfuzz0/24812968010180183913181915694199763672.smt2
(set-logic QF_FP)
(declare-const x0 (_ FloatingPoint 11 53))
(declare-const x1 (_ FloatingPoint 11 53))
(declare-const x2 (_ FloatingPoint 11 53))
(declare-const x3 (_ FloatingPoint 11 53))
(declare-const x4 (_ FloatingPoint 11 53))
(declare-const x5 (_ FloatingPoint 11 53))
(declare-const x6 (_ FloatingPoint 11 53))
(declare-const x7 (_ FloatingPoint 11 53))
(declare-const x8 (_ FloatingPoint 11 53))
(declare-const x9 (_ FloatingPoint 11 53))
(declare-const x10 (_ FloatingPoint 11 53))
(declare-const x11 (_ FloatingPoint 11 53))
(declare-const x12 (_ FloatingPoint 11 53))
(declare-const x13 (_ FloatingPoint 11 53))
(declare-const x14 (_ FloatingPoint 11 53))
(assert (fp.geq (fp.mul RNE x8 x3) (fp.add RNE x0 x1)))
(assert (fp.leq (fp.neg x8) (fp.sub RNE x0 x14)))
(assert (fp.geq (fp.add RNE x8 x9) (fp.add RNE x14 x9)))
(assert (fp.eq (fp.div RNE x3 x2) (fp.neg x9)))
(assert (fp.leq (fp.mul RNE x10 x2) (fp.mul RNE x4 x6)))
(assert (fp.eq (fp.neg x7) (fp.mul RNE x0 x8)))
(assert (fp.gt (fp.mul RNE x14 x9) (fp.sub RNE x12 x0)))
(assert (fp.geq (fp.add RNE x13 x1) (fp.add RNE x12 x13)))
(assert (fp.gt (fp.add RNE x13 x3) (fp.neg x8)))
(assert (fp.eq (fp.neg x1) (fp.add RNE x0 x14)))
(check-sat)
