db/data/24812968010180183913181915694199763672.z3.out
sat
-------------------
95.695915020
